43806858968189070895011,14,1,2,012,9,1,2,09,5,1,2,015,11,1,2,05,13,1,2,01,8,1,2,09,15,1,2,09,14,1,2,012,1,1,2,011,3,1,2,010,3,1,2,014,9,1,2,05,11,1,2,01,1,1,2,06,5,1,2,014,6,1,2,03,15,1,2,010,15,1,2,012,13,1,2,014,2,1,2,011,14,1,2,014,15,1,2,02,3,1,2,05,13,1,2,09,3,1,2,05,1,1,2,012,6,1,2,013,15,1,2,011,11,1,2,05,4,1,2,010,1,1,2,01,14,1,2,08,6,1,2,014,8,1,2,06,8,1,2,015,13,1,2,010,15,1,2,012,4,1,2,013,5,1,2,09,10,1,2,010,10,1,2,03,10,1,2,013,10,1,2,013,2,1,2,06,13,1,2,06,12,1,2,09,2,1,2,07,6,1,2,04,8,1,2,011,1,1,2,0